33D32945 STP File, STP Format Version 1.0

SECTION Comments
Name "cube_n12_d2_s33"
Problem "Euclidean Steiner Tree Problem"
Remark "Generated with STPGenerator. 2 dimensions."
END

SECTION Graph
Nodes 12
END

SECTION Coordinates
DD 0 0.3079489355 0.6126976412
DD 1 0.4672263043 0.5413947988
DD 2 0.3004468834 0.2632564820
DD 3 0.8872430967 0.7088636578
DD 4 0.0528921765 0.2627286242
DD 5 0.2802385941 0.3090906377
DD 6 0.2058983465 0.1701670499
DD 7 0.6832347255 0.1237438932
DD 8 0.9474799428 0.1736593936
DD 9 0.3251002693 0.2867596859
DD 10 0.3318277520 0.4798882434
DD 11 0.6288429693 0.6801386246
END
